\ENCODING=ISO-8859-1
\Problem name: IloCplex_conflict

Minimize
 obj1:
Subject To
 c2232: 500 z_14_5 - 1000 z_14_4 + 500 z_14_3 >= 2
 c2237: z_14_5 - z_14_4  = 0
 c2238: z_14_5 - z_14_3  = 0
\Sum of equality rows in the conflict:
\ sum_eq: 2 z_14_5 - z_14_4 - z_14_3  = 0
Bounds
      z_14_5 Free
      z_14_4 Free
      z_14_3 Free
End
